; https=//stackoverflow.com/questions/38605460/find-the-second-space-and-copy-remaining-text-using-mid-and-search-in-excel
(set-logic SLIA)
(synth-fun f ((_arg_0 String)) String 
 ( (Start String (ntString)) 
 (ntString String (
	_arg_0
	"" " "
	(str.++ ntString ntString) 
	(str.replace ntString ntString ntString) 
	(str.at ntString ntInt)
	(int.to.str ntInt)
	(ite ntBool ntString ntString)
	(str.substr ntString ntInt ntInt)
)) 
 (ntInt Int (
	
	1 0 -1
	(+ ntInt ntInt)
	(- ntInt ntInt)
	(str.len ntString)
	(str.to.int ntString)
	(ite ntBool ntInt ntInt)
	(str.indexof ntString ntString ntInt)
)) 
 (ntBool Bool (
	
	true false
	(= ntInt ntInt)
	(str.prefixof ntString ntString)
	(str.suffixof ntString ntString)
	(str.contains ntString ntString)
)) ))
(constraint (= (f "Sarah Jane Jones") "Jones"))
(constraint (= (f "Bob Jane Smithfield") "Smithfield"))
(check-synth)
